5 5
3 75 2 33 4 83 1 45 0 54
0 51 3 87 4 23 1 29 2 6
3 39 4 5 2 96 0 40 1 90
4 78 1 82 3 21 0 59 2 89
2 20 0 24 1 3 3 86 4 72
-1
0 2 4 5
0 1 2 4 5
0 4 5
0 2 4 5
0 1 2 3 5
-2
126 319 444
51 139 278 204
185 370
203 373 477
23 46 50 227

393 8
21 5 13 18 4
22 16 14 3 8
20 12 1 19 9
10 0 6 17 23
11 15 2 7 24
